param set_len = 50;
param target_sum = 13570874472;
param values := [1] 139057776 [2] 661786605 [3] 128638203 [4] 17847402 [5] 129152593 [6] 962731583 [7] 819211233 [8] 275536433 [9] 378490138 [10] 643164151 [11] 745621563 [12] 291405233 [13] 1047759632 [14] 144386884 [15] 794929556 [16] 74994784 [17] 605735020 [18] 784404759 [19] 240668536 [20] 727078042 [21] 81336321 [22] 727027835 [23] 210934503 [24] 981992704 [25] 180809120 [26] 363407831 [27] 301867457 [28] 993657179 [29] 945981165 [30] 1054220006 [31] 135387055 [32] 836653057 [33] 490614412 [34] 471581900 [35] 535544782 [36] 562213003 [37] 784197235 [38] 301122157 [39] 547890166 [40] 162254870 [41] 757827008 [42] 722686147 [43] 500797542 [44] 769962971 [45] 666001175 [46] 1071849115 [47] 839381000 [48] 622243873 [49] 588763090 [50] 271156517 ;
